#Generated by Multiwfn
&GLOBAL
  PROJECT alpha-Fe2O3-multiwfn
  PRINT_LEVEL MEDIUM
  RUN_TYPE ENERGY
&END GLOBAL

&FORCE_EVAL
  METHOD Quickstep
  &SUBSYS
    &TOPOLOGY
      MULTIPLE_UNIT_CELL  2  2  2
    &END TOPOLOGY
    &CELL
      A     5.03599000     0.00000000     0.00000000
      B    -2.51799500     4.36129527     0.00000000
      C     0.00000000     0.00000000    13.78160000
      MULTIPLE_UNIT_CELL  2  2  2
      PERIODIC XYZ #Direction of applied PBC (geometry aspect)
    &END CELL
    &COORD
      Fe       0.00000000    0.00000000    4.89384616
      O        1.55612091    0.00000000    3.44540000
      Fe_1     0.00000000    0.00000000    1.99695384
      O        1.73993455    3.01365503    3.44540000
      O       -0.77806045    1.34764024    3.44540000
      Fe_1     0.00000000    0.00000000    8.88775384
      O        0.77806046    1.34764024   10.33620000
      O       -1.73993454    3.01365503   10.33620000
      O        3.47986909    0.00000000   10.33620000
      Fe       0.00000000    0.00000000   11.78464616
      Fe_1     2.51799503    1.45376508    6.59082046
      O        4.07411594    1.45376508    8.03926662
      Fe_1    -0.00000003    2.90753020   11.18468722
      O        1.55612088    2.90753020   12.63313338
      O        1.73993457    0.10612484    8.03926662
      O       -0.77806048    1.55988996   12.63313338
      O        1.73993457    2.80140532    8.03926662
      O       -0.77806048    4.25517044   12.63313338
      Fe_1     2.51799503    1.45376508   13.48162046
      O        3.29605548    2.80140532    1.14846662
      Fe_1    -0.00000003    2.90753020    4.29388722
      O        0.77806043    4.25517044    5.74233338
      O        3.29605548    0.10612484    1.14846662
      O        0.77806043    1.55988996    5.74233338
      O        0.96187412    1.45376508    1.14846662
      O       -1.55612094    2.90753020    5.74233338
      Fe       2.51799503    1.45376508    2.59691278
      Fe      -0.00000003    2.90753020    7.19077954
      Fe       2.51799503    1.45376508    9.48771278
      Fe      -0.00000003    2.90753020    0.29997954
    &END COORD
    &KIND O    
      ELEMENT O 
      BASIS_SET DZVP-MOLOPT-SR-GTH-q6
      POTENTIAL GTH-PBE
    &END KIND
    &KIND Fe_1 
      ELEMENT Fe
      BASIS_SET DZVP-MOLOPT-SR-GTH-q16
      POTENTIAL GTH-PBE
      &DFT_PLUS_U T
        L 2 #Quantum number of angular momentum the atomic orbitals to +U. 2=d, 3=f
        U_MINUS_J [eV] 5 #Effective on-site Coulomb interaction parameter U(eff) = U - J
      &END DFT_PLUS_U
      MAGNETIZATION  3
    &END KIND
    &KIND Fe   
      ELEMENT Fe
      BASIS_SET DZVP-MOLOPT-SR-GTH-q16
      POTENTIAL GTH-PBE
      &DFT_PLUS_U T
        L 2 #Quantum number of angular momentum the atomic orbitals to +U. 2=d, 3=f
        U_MINUS_J [eV] 5 #Effective on-site Coulomb interaction parameter U(eff) = U - J
      &END DFT_PLUS_U
      MAGNETIZATION -3
    &END KIND
  &END SUBSYS

  &DFT
    BASIS_SET_FILE_NAME  BASIS_MOLOPT
    POTENTIAL_FILE_NAME  POTENTIAL
#   WFN_RESTART_FILE_NAME alpha-Fe2O3-multiwfn-RESTART.wfn
    CHARGE    0 #Net charge
    # MULTIPLICITY    1 #Spin multiplicity
    UKS
    PLUS_U_METHOD MULLIKEN #The method used in DFT+U. Can also be Lowdin
    &QS
      EPS_DEFAULT 1E-10 #This is default. Set all EPS_xxx to values such that the energy will be correct up to this value
    &END QS
    &POISSON
      PERIODIC XYZ #Direction(s) of PBC for calculating electrostatics
      PSOLVER PERIODIC #The way to solve Poisson equation
    &END POISSON
    &XC
      &XC_FUNCTIONAL PBE
      &END XC_FUNCTIONAL
      &VDW_POTENTIAL
        POTENTIAL_TYPE PAIR_POTENTIAL
        &PAIR_POTENTIAL
          PARAMETER_FILE_NAME dftd3.dat
          TYPE DFTD3
          REFERENCE_FUNCTIONAL PBE
        &END PAIR_POTENTIAL
      &END VDW_POTENTIAL
    &END XC
    &MGRID
      CUTOFF 350
      REL_CUTOFF 50
    &END MGRID
    &SCF
      MAX_SCF 128
      EPS_SCF 5.0E-06 #Convergence threshold of density matrix during SCF
#     SCF_GUESS RESTART #Use wavefunction from WFN_RESTART_FILE_NAME file as initial guess
      &DIAGONALIZATION
        ALGORITHM STANDARD #Algorithm for diagonalization. DAVIDSON is faster for large systems
      &END DIAGONALIZATION
      &MIXING #How to mix old and new density matrices
        METHOD BROYDEN_MIXING #PULAY_MIXING is also a good alternative
        ALPHA 0.1 #Default. Mixing 40% of new density matrix with the old one
        NBROYDEN 8 #Default is 4. Number of previous steps stored for the actual mixing scheme
      &END MIXING
      &SMEAR
        METHOD FERMI_DIRAC
        ELECTRONIC_TEMPERATURE 300 #Electronic temperature of Fermi-Dirac smearing in K
      &END SMEAR
      ADDED_MOS   300   300 #Number of virtual MOs to solve for alpha and beta spins
    &END SCF
    &PRINT
      &DOS
      &END DOS 
      &PDOS
          NLUMO -1
          COMPONENTS
      &END PDOS   
      &MO_MOLDEN #Exporting .molden file containing wavefunction information
        NDIGITS 9 #Output orbital coefficients if absolute value is larger than 1E-9
        GTO_KIND SPHERICAL #Spherical-harmonic type of basis functions
      &END MO_MOLDEN
      &ELF_CUBE
        STRIDE 1 #Stride of exported cube file
      &END ELF_CUBE
      &MULLIKEN
        PRINT_ALL F #If T, then printing full net AO and overlap population matrix
      &END MULLIKEN
      &MOMENTS
        PERIODIC T #Use Berry phase formula (T) or simple operator (F), the latter normally applies to isolated systems
      &END MOMENTS
    &END PRINT
  &END DFT
&END FORCE_EVAL
